N = 5;
lengths = [295, 295, 295, 295, 295];
widths = [295, 295, 295, 295, 295];
heights = [75, 70, 75, 75, 50];
reds = [197, 132, 155, 111, 71];
greens = [215, 248, 244, 71, 48];
blues = [20, 207, 183, 144, 128];
